NAME : rc205.1.8992354.tour
COMMENT : Length = 8992354
COMMENT : Found by LKH [Keld Helsgaun] Tue Nov  7 19:52:21 2017
TYPE : TOUR
DIMENSION : 23
TOUR_SECTION
1
15
17
14
18
9
7
6
8
22
2
20
19
10
11
12
21
3
4
5
16
13
23
-1
EOF
